coords = array2d(1..35, 1..2, [636, 370, 853, 737, 453, 968, 637, 349, 108,
    193, 243, 179, 73, 565, 16, 563, 386, 854, 440, 300, 889, 99, 931,
    336, 655, 996, 341, 994, 55, 316, 845, 65, 801, 847, 772, 3, 777,
    147, 11, 829, 376, 314, 171, 10, 702, 931, 510, 961, 648, 563,
    700, 483, 791, 614, 931, 568, 247, 210, 112, 481, 377, 504, 209,
    277, 309, 452, 842, 943, 588, 890]);

n = 35;

